DATASET = "thpack5";
INSTANCE = "046";

WIDTH = 233;
HEIGHT = 220;
LENGTH = 587;

NO_OF_SHAPES = 12;
size = [|
  86,58,36 |
  71,69,22 |
  108,78,54 |
  104,58,57 |
  96,65,58 |
  58,37,26 |
  73,72,49 |
  98,67,56 |
  117,89,23 |
  109,76,73 |
  95,61,34 |
  106,73,49 |
|];

verticality = [|
  0,1,1 |
  0,0,1 |
  0,1,1 |
  1,1,1 |
  1,1,1 |
  0,1,1 |
  1,1,1 |
  1,1,1 |
  0,0,1 |
  1,1,1 |
  0,1,1 |
  0,1,1 |
|];

box_count = [
  8,
  5,
  11,
  9,
  9,
  11,
  8,
  5,
  9,
  9,
  7,
  8,
];
